certificates/rado_a14_c54_N27.drat
-25 -27 0
d -4 -25 -27 0
5 -3 25 0
-5 -3 0
d -5 -19 -3 0
-3 25 0
d 5 -3 25 0
-27 0
25 3 0
-5 3 0
5 3 0
d 5 19 3 0
3 0
-15 0
25 0
-5 0
-13 0
21 0
11 0
4 0
-23 0
-9 0
-19 0
-2 0
-6 0
-1 0
-16 0
7 0
0
